
(set-logic HORN)
(declare-fun Z_1522 () Int)
(declare-fun S_359 (Int) Int)
(declare-fun diseqInt (Int Int) Bool)
(declare-fun unS_515 (Int Int) Bool)
(declare-fun isZ_330 (Int) Bool)
(declare-fun isS_330 (Int) Bool)
(assert (forall ((x_46806 Int))
	(unS_515 x_46806 (S_359 x_46806))))
(assert (isZ_330 Z_1522))
(assert (forall ((x_46808 Int))
	(isS_330 (S_359 x_46808))))
(assert (forall ((x_46809 Int))
	(diseqInt Z_1522 (S_359 x_46809))))
(assert (forall ((x_46810 Int))
	(diseqInt (S_359 x_46810) Z_1522)))
(assert (forall ((x_46811 Int) (x_46812 Int))
	(=> (diseqInt x_46811 x_46812) (diseqInt (S_359 x_46811) (S_359 x_46812)))))
(declare-fun add_276 (Int Int Int) Bool)
(declare-fun minus_272 (Int Int Int) Bool)
(declare-fun le_257 (Int Int) Bool)
(declare-fun ge_257 (Int Int) Bool)
(declare-fun lt_274 (Int Int) Bool)
(declare-fun gt_260 (Int Int) Bool)
(declare-fun mult_257 (Int Int Int) Bool)
(declare-fun div_257 (Int Int Int) Bool)
(declare-fun mod_259 (Int Int Int) Bool)
(assert (forall ((y_1689 Int))
	(add_276 y_1689 Z_1522 y_1689)))
(assert (forall ((x_46797 Int) (y_1689 Int) (r_318 Int))
	(=> (add_276 r_318 x_46797 y_1689) (add_276 (S_359 r_318) (S_359 x_46797) y_1689))))
(assert (forall ((y_1689 Int))
	(minus_272 Z_1522 Z_1522 y_1689)))
(assert (forall ((x_46797 Int) (y_1689 Int) (r_318 Int))
	(=> (minus_272 r_318 x_46797 y_1689) (minus_272 (S_359 r_318) (S_359 x_46797) y_1689))))
(assert (forall ((y_1689 Int))
	(le_257 Z_1522 y_1689)))
(assert (forall ((x_46797 Int) (y_1689 Int))
	(=> (le_257 x_46797 y_1689) (le_257 (S_359 x_46797) (S_359 y_1689)))))
(assert (forall ((y_1689 Int))
	(ge_257 y_1689 Z_1522)))
(assert (forall ((x_46797 Int) (y_1689 Int))
	(=> (ge_257 x_46797 y_1689) (ge_257 (S_359 x_46797) (S_359 y_1689)))))
(assert (forall ((y_1689 Int))
	(lt_274 Z_1522 (S_359 y_1689))))
(assert (forall ((x_46797 Int) (y_1689 Int))
	(=> (lt_274 x_46797 y_1689) (lt_274 (S_359 x_46797) (S_359 y_1689)))))
(assert (forall ((y_1689 Int))
	(gt_260 (S_359 y_1689) Z_1522)))
(assert (forall ((x_46797 Int) (y_1689 Int))
	(=> (gt_260 x_46797 y_1689) (gt_260 (S_359 x_46797) (S_359 y_1689)))))
(assert (forall ((y_1689 Int))
	(mult_257 Z_1522 Z_1522 y_1689)))
(assert (forall ((x_46797 Int) (y_1689 Int) (r_318 Int) (z_1523 Int))
	(=> (and (mult_257 r_318 x_46797 y_1689) (add_276 z_1523 r_318 y_1689)) (mult_257 z_1523 (S_359 x_46797) y_1689))))
(assert (forall ((x_46797 Int) (y_1689 Int))
	(=> (lt_274 x_46797 y_1689) (div_257 Z_1522 x_46797 y_1689))))
(assert (forall ((x_46797 Int) (y_1689 Int) (r_318 Int) (z_1523 Int))
	(=> (and (ge_257 x_46797 y_1689) (minus_272 z_1523 x_46797 y_1689) (div_257 r_318 z_1523 y_1689)) (div_257 (S_359 r_318) x_46797 y_1689))))
(assert (forall ((x_46797 Int) (y_1689 Int))
	(=> (lt_274 x_46797 y_1689) (mod_259 x_46797 x_46797 y_1689))))
(assert (forall ((x_46797 Int) (y_1689 Int) (r_318 Int) (z_1523 Int))
	(=> (and (ge_257 x_46797 y_1689) (minus_272 z_1523 x_46797 y_1689) (mod_259 r_318 z_1523 y_1689)) (mod_259 r_318 x_46797 y_1689))))
(declare-datatypes ((list_183 0)) (((nil_208) (cons_183 (head_366 Int) (tail_366 list_183)))))
(declare-fun diseqlist_183 (list_183 list_183) Bool)
(declare-fun head_367 (Int list_183) Bool)
(declare-fun tail_367 (list_183 list_183) Bool)
(declare-fun isnil_208 (list_183) Bool)
(declare-fun iscons_183 (list_183) Bool)
(assert (forall ((x_46814 Int) (x_46815 list_183))
	(head_367 x_46814 (cons_183 x_46814 x_46815))))
(assert (forall ((x_46814 Int) (x_46815 list_183))
	(tail_367 x_46815 (cons_183 x_46814 x_46815))))
(assert (isnil_208 nil_208))
(assert (forall ((x_46817 Int) (x_46818 list_183))
	(iscons_183 (cons_183 x_46817 x_46818))))
(assert (forall ((x_46819 Int) (x_46820 list_183))
	(diseqlist_183 nil_208 (cons_183 x_46819 x_46820))))
(assert (forall ((x_46821 Int) (x_46822 list_183))
	(diseqlist_183 (cons_183 x_46821 x_46822) nil_208)))
(assert (forall ((x_46823 Int) (x_46824 list_183) (x_46825 Int) (x_46826 list_183))
	(=> (diseqInt x_46823 x_46825) (diseqlist_183 (cons_183 x_46823 x_46824) (cons_183 x_46825 x_46826)))))
(assert (forall ((x_46823 Int) (x_46824 list_183) (x_46825 Int) (x_46826 list_183))
	(=> (diseqlist_183 x_46824 x_46826) (diseqlist_183 (cons_183 x_46823 x_46824) (cons_183 x_46825 x_46826)))))
(declare-datatypes ((pair_74 0)) (((pair_75 (projpair_148 list_183) (projpair_149 list_183)))))
(declare-fun diseqpair_37 (pair_74 pair_74) Bool)
(declare-fun projpair_150 (list_183 pair_74) Bool)
(declare-fun projpair_151 (list_183 pair_74) Bool)
(declare-fun ispair_37 (pair_74) Bool)
(assert (forall ((x_46827 list_183) (x_46828 list_183))
	(projpair_150 x_46827 (pair_75 x_46827 x_46828))))
(assert (forall ((x_46827 list_183) (x_46828 list_183))
	(projpair_151 x_46828 (pair_75 x_46827 x_46828))))
(assert (forall ((x_46830 list_183) (x_46831 list_183))
	(ispair_37 (pair_75 x_46830 x_46831))))
(assert (forall ((x_46832 list_183) (x_46833 list_183) (x_46834 list_183) (x_46835 list_183))
	(=> (diseqlist_183 x_46832 x_46834) (diseqpair_37 (pair_75 x_46832 x_46833) (pair_75 x_46834 x_46835)))))
(assert (forall ((x_46832 list_183) (x_46833 list_183) (x_46834 list_183) (x_46835 list_183))
	(=> (diseqlist_183 x_46833 x_46835) (diseqpair_37 (pair_75 x_46832 x_46833) (pair_75 x_46834 x_46835)))))
(declare-fun twoThirds_3 (Int Int) Bool)
(assert (twoThirds_3 (S_359 Z_1522) (S_359 (S_359 Z_1522))))
(assert (=> (diseqInt (S_359 Z_1522) (S_359 (S_359 Z_1522))) (twoThirds_3 (S_359 Z_1522) (S_359 Z_1522))))
(assert (twoThirds_3 (S_359 Z_1522) (S_359 (S_359 Z_1522))))
(assert (=> (and (diseqInt Z_1522 (S_359 (S_359 Z_1522))) (diseqInt Z_1522 (S_359 Z_1522))) (twoThirds_3 Z_1522 Z_1522)))
(assert (twoThirds_3 (S_359 Z_1522) (S_359 (S_359 Z_1522))))
(assert (=> (diseqInt (S_359 Z_1522) (S_359 (S_359 Z_1522))) (twoThirds_3 (S_359 Z_1522) (S_359 Z_1522))))
(assert (twoThirds_3 (S_359 Z_1522) (S_359 (S_359 Z_1522))))
(assert (forall ((x_46799 Int) (x_46735 Int) (x_46736 Int) (x_46711 Int))
	(=> (and (diseqInt x_46711 (S_359 (S_359 Z_1522))) (diseqInt x_46711 (S_359 Z_1522)) (diseqInt x_46711 Z_1522) (twoThirds_3 x_46736 x_46799) (minus_272 x_46799 x_46711 (S_359 (S_359 (S_359 Z_1522)))) (add_276 x_46735 (S_359 (S_359 Z_1522)) x_46736)) (twoThirds_3 x_46735 x_46711))))
(declare-fun third_7 (Int Int) Bool)
(assert (third_7 Z_1522 (S_359 (S_359 Z_1522))))
(assert (=> (diseqInt (S_359 Z_1522) (S_359 (S_359 Z_1522))) (third_7 Z_1522 (S_359 Z_1522))))
(assert (third_7 Z_1522 (S_359 (S_359 Z_1522))))
(assert (=> (and (diseqInt Z_1522 (S_359 (S_359 Z_1522))) (diseqInt Z_1522 (S_359 Z_1522))) (third_7 Z_1522 Z_1522)))
(assert (third_7 Z_1522 (S_359 (S_359 Z_1522))))
(assert (=> (diseqInt (S_359 Z_1522) (S_359 (S_359 Z_1522))) (third_7 Z_1522 (S_359 Z_1522))))
(assert (third_7 Z_1522 (S_359 (S_359 Z_1522))))
(assert (forall ((x_46801 Int) (x_46744 Int) (x_46745 Int) (x_46712 Int))
	(=> (and (diseqInt x_46712 (S_359 (S_359 Z_1522))) (diseqInt x_46712 (S_359 Z_1522)) (diseqInt x_46712 Z_1522) (third_7 x_46745 x_46801) (minus_272 x_46801 x_46712 (S_359 (S_359 (S_359 Z_1522)))) (add_276 x_46744 (S_359 Z_1522) x_46745)) (third_7 x_46744 x_46712))))
(declare-fun take_40 (list_183 Int list_183) Bool)
(assert (forall ((x_46713 Int) (y_1679 list_183))
	(=> (le_257 x_46713 Z_1522) (take_40 nil_208 x_46713 y_1679))))
(assert (forall ((x_46802 Int) (x_46748 list_183) (z_1517 Int) (xs_498 list_183) (x_46713 Int))
	(=> (and (gt_260 x_46713 Z_1522) (take_40 x_46748 x_46802 xs_498) (minus_272 x_46802 x_46713 (S_359 Z_1522))) (take_40 (cons_183 z_1517 x_46748) x_46713 (cons_183 z_1517 xs_498)))))
(assert (forall ((x_46713 Int) (y_1679 list_183))
	(=> (le_257 x_46713 Z_1522) (take_40 nil_208 x_46713 y_1679))))
(assert (forall ((x_46713 Int))
	(=> (gt_260 x_46713 Z_1522) (take_40 nil_208 x_46713 nil_208))))
(declare-fun sort_27 (list_183 Int Int) Bool)
(assert (forall ((x_46714 Int) (y_1680 Int))
	(=> (le_257 x_46714 y_1680) (sort_27 (cons_183 x_46714 (cons_183 y_1680 nil_208)) x_46714 y_1680))))
(assert (forall ((x_46714 Int) (y_1680 Int))
	(=> (gt_260 x_46714 y_1680) (sort_27 (cons_183 y_1680 (cons_183 x_46714 nil_208)) x_46714 y_1680))))
(declare-fun length_30 (Int list_183) Bool)
(assert (forall ((x_46753 Int) (x_46754 Int) (y_1681 Int) (l_32 list_183))
	(=> (and (length_30 x_46754 l_32) (add_276 x_46753 (S_359 Z_1522) x_46754)) (length_30 x_46753 (cons_183 y_1681 l_32)))))
(assert (length_30 Z_1522 nil_208))
(declare-fun insert_23 (list_183 Int list_183) Bool)
(assert (forall ((z_1518 Int) (xs_499 list_183) (x_46716 Int))
	(=> (le_257 x_46716 z_1518) (insert_23 (cons_183 x_46716 (cons_183 z_1518 xs_499)) x_46716 (cons_183 z_1518 xs_499)))))
(assert (forall ((x_46758 list_183) (z_1518 Int) (xs_499 list_183) (x_46716 Int))
	(=> (and (gt_260 x_46716 z_1518) (insert_23 x_46758 x_46716 xs_499)) (insert_23 (cons_183 z_1518 x_46758) x_46716 (cons_183 z_1518 xs_499)))))
(assert (forall ((x_46716 Int))
	(insert_23 (cons_183 x_46716 nil_208) x_46716 nil_208)))
(declare-fun isort_23 (list_183 list_183) Bool)
(assert (forall ((x_46760 list_183) (x_46761 list_183) (y_1683 Int) (xs_500 list_183))
	(=> (and (isort_23 x_46761 xs_500) (insert_23 x_46760 y_1683 x_46761)) (isort_23 x_46760 (cons_183 y_1683 xs_500)))))
(assert (isort_23 nil_208 nil_208))
(declare-fun drop_42 (list_183 Int list_183) Bool)
(assert (forall ((x_46764 list_183) (x_46718 Int))
	(=> (le_257 x_46718 Z_1522) (drop_42 x_46764 x_46718 x_46764))))
(assert (forall ((x_46804 Int) (x_46765 list_183) (z_1519 Int) (xs_501 list_183) (x_46718 Int))
	(=> (and (gt_260 x_46718 Z_1522) (drop_42 x_46765 x_46804 xs_501) (minus_272 x_46804 x_46718 (S_359 Z_1522))) (drop_42 x_46765 x_46718 (cons_183 z_1519 xs_501)))))
(assert (forall ((x_46767 list_183) (x_46718 Int))
	(=> (le_257 x_46718 Z_1522) (drop_42 x_46767 x_46718 x_46767))))
(assert (forall ((x_46718 Int))
	(=> (gt_260 x_46718 Z_1522) (drop_42 nil_208 x_46718 nil_208))))
(declare-fun splitAt_18 (pair_74 Int list_183) Bool)
(assert (forall ((x_46770 list_183) (x_46771 list_183) (x_46719 Int) (y_1685 list_183))
	(=> (and (take_40 x_46770 x_46719 y_1685) (drop_42 x_46771 x_46719 y_1685)) (splitAt_18 (pair_75 x_46770 x_46771) x_46719 y_1685))))
(declare-fun x_46720 (list_183 list_183 list_183) Bool)
(assert (forall ((x_46773 list_183) (z_1520 Int) (xs_502 list_183) (y_1686 list_183))
	(=> (x_46720 x_46773 xs_502 y_1686) (x_46720 (cons_183 z_1520 x_46773) (cons_183 z_1520 xs_502) y_1686))))
(assert (forall ((x_46774 list_183))
	(x_46720 x_46774 nil_208 x_46774)))
(declare-fun nstoogesort_21 (list_183 list_183) Bool)
(declare-fun nstoogesort_22 (list_183 list_183) Bool)
(declare-fun nstoogesort_23 (list_183 list_183) Bool)
(assert (forall ((x_46778 list_183) (x_46779 list_183) (x_46775 Int) (x_46776 Int) (ys_157 list_183) (zs_53 list_183) (x_46722 list_183))
	(=> (and (nstoogesort_22 x_46779 ys_157) (x_46720 x_46778 x_46779 zs_53) (length_30 x_46775 x_46722) (twoThirds_3 x_46776 x_46775) (splitAt_18 (pair_75 ys_157 zs_53) x_46776 x_46722)) (nstoogesort_21 x_46778 x_46722))))
(assert (forall ((x_46781 list_183) (x_46782 list_183) (x_46783 list_183) (x_46725 Int) (x_46726 list_183) (y_1688 Int) (y_1687 Int))
	(=> (and (nstoogesort_21 x_46782 (cons_183 y_1687 (cons_183 y_1688 (cons_183 x_46725 x_46726)))) (nstoogesort_23 x_46783 x_46782) (nstoogesort_21 x_46781 x_46783)) (nstoogesort_22 x_46781 (cons_183 y_1687 (cons_183 y_1688 (cons_183 x_46725 x_46726)))))))
(assert (forall ((x_46785 list_183) (y_1688 Int) (y_1687 Int))
	(=> (sort_27 x_46785 y_1687 y_1688) (nstoogesort_22 x_46785 (cons_183 y_1687 (cons_183 y_1688 nil_208))))))
(assert (forall ((y_1687 Int))
	(nstoogesort_22 (cons_183 y_1687 nil_208) (cons_183 y_1687 nil_208))))
(assert (nstoogesort_22 nil_208 nil_208))
(assert (forall ((x_46792 list_183) (x_46793 list_183) (x_46789 Int) (x_46790 Int) (ys_158 list_183) (zs_54 list_183) (x_46727 list_183))
	(=> (and (nstoogesort_22 x_46793 zs_54) (x_46720 x_46792 ys_158 x_46793) (length_30 x_46789 x_46727) (third_7 x_46790 x_46789) (splitAt_18 (pair_75 ys_158 zs_54) x_46790 x_46727)) (nstoogesort_23 x_46792 x_46727))))
(assert (forall ((x_46795 list_183) (x_46796 list_183) (xs_503 list_183))
	(=> (and true (diseqlist_183 x_46795 x_46796) (nstoogesort_22 x_46795 xs_503) (isort_23 x_46796 xs_503)) false)))
(check-sat)
